N = 20;
lengths = [1120, 660, 295, 120, 80, 530, 500, 340, 150, 170, 210, 110, 270, 40, 70, 180, 1300, 800, 670, 295];
widths = [350, 660, 295, 120, 30, 170, 400, 100, 80, 170, 110, 40, 50, 40, 70, 40, 700, 100, 60, 170];
heights = [100, 100, 75, 120, 20, 100, 150, 100, 60, 40, 40, 40, 30, 10, 70, 25, 50, 40, 60, 55];
reds = [197, 132, 155, 111, 71, 75, 37, 51, 161, 226, 7, 0, 124, 97, 72, 41, 55, 63, 147, 197];
greens = [215, 248, 244, 71, 48, 158, 169, 181, 104, 133, 47, 252, 166, 113, 229, 163, 154, 170, 227, 162];
blues = [20, 207, 183, 144, 128, 50, 241, 222, 244, 31, 204, 170, 32, 122, 46, 250, 149, 104, 46, 123];
